SPARKNaCl/why3-z3/sparknacl-aes.adb_404_26_initialization_1.smt2
;; produced by z3_gnatprove.drv ;;
(set-info :smt-lib-version 2.5)
(set-info :source |VC generated by SPARK 2014|)
(set-info :category industrial)
(set-info :status unknown)
;;; generated by SMT-LIB2 driver
;;; SMT-LIB2 driver: bit-vectors, common part
;;; SMT-LIB2: integer arithmetic
(declare-sort u32 0)

;; "to_rep"
(declare-fun to_rep (u32) (_ BitVec 32))

;; "of_rep"
(declare-fun of_rep ((_ BitVec 32)) u32)

;; "inversion_axiom"
(assert
  (forall ((x u32)) (! (= (of_rep (to_rep x)) x) :pattern ((to_rep x)) )))

;; "range_axiom"
(assert true)

;; "coerce_axiom"
(assert
  (forall ((x (_ BitVec 32)))
    (! (= (to_rep (of_rep x)) x) :pattern ((to_rep (of_rep x))) )))

(declare-sort map1 0)

(declare-datatypes ()
  ((map__ref (map__refqtmk (map__content map1)))))

;; "has_bounds"
(declare-fun has_bounds (map1
  Int
  Int) Bool)

;; "get"
(declare-fun get (map1
  Int) u32)

(declare-sort byte 0)

;; "to_rep"
(declare-fun to_rep1 (byte) (_ BitVec 8))

;; "of_rep"
(declare-fun of_rep1 ((_ BitVec 8)) byte)

;; "inversion_axiom"
(assert
  (forall ((x byte)) (! (= (of_rep1 (to_rep1 x)) x) :pattern ((to_rep1 x)) )))

;; "range_axiom"
(assert true)

;; "coerce_axiom"
(assert
  (forall ((x (_ BitVec 8)))
    (! (= (to_rep1 (of_rep1 x)) x) :pattern ((to_rep1 (of_rep1 x))) )))

(declare-sort map2 0)

(declare-datatypes ()
  ((map__ref1 (map__refqtmk1 (map__content1 map2)))))

;; "has_bounds"
(declare-fun has_bounds1 (map2
  Int
  Int) Bool)

;; "get"
(declare-fun get1 (map2
  Int) byte)

(declare-datatypes ()
  ((byte__init_wrapper
   (byte__init_wrapperqtmk (rec__value byte)(us_attr__init Bool)))))

(declare-sort map3 0)

(declare-datatypes ()
  ((map__ref2 (map__refqtmk2 (map__content2 map3)))))

;; "has_bounds"
(declare-fun has_bounds2 (map3
  Int
  Int) Bool)

;; "get"
(declare-fun get2 (map3
  Int) byte__init_wrapper)

;; "__is_initialized"
(define-fun us_is_initialized ((temp___expr_809 map3)) Bool
  (forall ((temp___810 Int))
    (=>
      (and (<= 0 temp___810) (<= temp___810 3))
      (= (us_attr__init (get2 temp___expr_809 temp___810)) true))))

;; "convert"
(declare-fun convert (map2) map3)

;; "convert__def"
(assert
  (forall ((a map2))
    (let ((b (convert a)))
      (forall ((temp___196 Int))
        (and
          (= (us_attr__init
               (byte__init_wrapperqtmk
                 (of_rep1 (to_rep1 (get1 a temp___196)))
                 true)) (us_attr__init (get2 b temp___196)))
          (= (to_rep1
               (rec__value
                 (byte__init_wrapperqtmk
                   (of_rep1 (to_rep1 (get1 a temp___196)))
                   true))) (to_rep1 (rec__value (get2 b temp___196)))))))))

(declare-const state map1)

(declare-const column_old map2)

(declare-const column_0 map3)

(declare-const column_1 map3)

(declare-const column_2 map3)

(declare-const column_3 map3)

;; "column_3'unused"
(define-fun column_3qtunused () map__ref2
  (map__refqtmk2 column_3))

;; "column_2'unused"
(define-fun column_2qtunused () map__ref2
  (map__refqtmk2 column_2))

;; "column_1'unused"
(define-fun column_1qtunused () map__ref2
  (map__refqtmk2 column_1))

;; "column_0'unused"
(define-fun column_0qtunused () map__ref2
  (map__refqtmk2 column_0))

;; "column_old'unused"
(define-fun column_oldqtunused () map__ref1
  (map__refqtmk1 column_old))

;; "state'unused"
(define-fun stateqtunused () map__ref
  (map__refqtmk state))

;; "Assume"
(assert (has_bounds state 0 3))

;; "Assume"
(assert true)

;; "Assume"
(assert (has_bounds1 column_old 0 3))

;; "Assume"
(assert (has_bounds2 column_0 0 3))

;; "Assume"
(assert (has_bounds2 column_1 0 3))

;; "Assume"
(assert (has_bounds2 column_2 0 3))

;; "Assume"
(assert (has_bounds2 column_3 0 3))

;; "map__content'result'unused"
(define-fun map__contentqtresultqtunused () map2
  column_old)

;; "temp___compl_1648"
(define-fun temp___compl_1648 () map3
  (convert column_old))

;; "convert'result'unused"
(define-fun convertqtresultqtunused () map3
  temp___compl_1648)

;; "param__output'unused"
(define-fun param__outputqtunused () map__ref2
  (map__refqtmk2 temp___compl_1648))

;; "map__ref'mk'result'unused"
(define-fun map__refqtmkqtresultqtunused () map__ref2
  (map__refqtmk2 temp___compl_1648))

;; "map__content'result'unused"
(define-fun map__contentqtresultqtunused1 () map1
  state)

;; "o"
(define-fun o () u32
  (get state 0))

;; "get'result'unused"
(define-fun getqtresultqtunused () u32
  o)

(declare-const o1 (_ BitVec 32))

;; "Ensures"
(assert (= (to_rep o) o1))

;; "to_rep'result'unused"
(define-fun to_repqtresultqtunused () (_ BitVec 32)
  o1)

(declare-const param__output map3)

;; "param__output'unused"
(define-fun param__outputqtunused1 () map__ref2
  (map__refqtmk2 param__output))

;; "H"
(assert (us_is_initialized param__output))

;; "H"
(assert (has_bounds2 param__output 0 3))

;; "H"
(assert true)

;; "H"
(assert true)

;; Goal "def'vc"
;; File "sparknacl-aes.adb", line 53, characters 0-0
(assert
  (not (us_is_initialized param__output)))

(check-sat)
